p cnf 50 70
9 43 37 0
11 39 -47 0
28 -6 -21 0
-13 9 38 0
-50 24 -43 0
-43 -44 35 0
21 50 -10 0
-31 -50 26 0
-46 -20 -38 0
-4 -12 -33 0
-3 15 37 0
13 -43 12 0
13 -3 -34 0
-44 22 31 0
6 24 28 0
-36 44 -26 0
38 20 -37 0
-49 45 17 0
8 3 26 0
-1 -5 24 0
35 -29 40 0
-31 -6 -47 0
-15 -13 -4 0
23 -46 -19 0
-46 -45 50 0
-14 4 -5 0
41 -18 -5 0
50 11 -32 0
-39 -16 49 0
35 16 -21 0
-47 44 19 0
-16 -24 31 0
-21 -44 50 0
12 -2 20 0
-23 -19 11 0
-29 -4 -37 0
-43 -6 35 0
15 -22 -27 0
17 10 4 0
39 47 -3 0
3 14 -17 0
-12 -50 18 0
-25 16 -27 0
-29 -20 -18 0
-31 -45 5 0
7 20 -4 0
10 -34 -25 0
-39 -24 45 0
40 -3 45 0
-29 -14 15 0
x -1 -2 -7 -8 10 -11 -12 -14 -17 -18 19 20 -21 -22 24 31 -34 -35 36 39 -41 42 -43 45 -46 47 -49 50 0
x -5 -11 12 14 18 -20 -23 -25 -26 -27 30 -31 -32 -34 -36 -37 -38 -39 -40 41 -42 -44 -45 -46 -48 -49 0
x -2 5 7 -9 -10 -11 -17 19 -20 22 23 24 -30 -31 33 34 -36 39 40 41 43 45 -48 50 0
x 1 -5 -7 13 -15 -17 18 -19 -20 -22 24 25 -26 28 29 -32 33 -37 -39 -41 -42 -46 48 49 50 0
x 2 5 6 7 10 -11 12 13 14 -17 -18 23 25 -27 30 -32 36 37 38 39 42 -43 -47 -48 -49 0
x 5 7 9 -10 -15 -16 -17 -18 20 21 23 -27 -28 29 -30 -31 -35 36 -38 -40 -41 43 -44 -47 -48 50 0
x -2 3 -4 -5 -6 8 -9 10 13 -16 -18 20 24 -27 -28 -30 31 32 34 36 37 -38 39 -40 -44 46 -47 -48 0
x -2 -5 7 10 11 12 -13 16 18 19 -24 -26 28 -31 -32 33 37 -39 40 41 -45 -46 -47 -48 -49 0
x 1 2 6 -9 12 13 15 19 -21 -23 24 -26 27 -29 31 32 -33 -34 37 -39 43 44 -45 46 48 0
x -3 4 5 -8 -11 -14 -16 21 -23 -24 -26 27 -29 31 -34 -35 -39 -41 47 -48 50 0
x 1 2 -3 4 6 7 8 9 12 13 18 -19 -24 28 -30 38 39 42 43 44 -45 -46 -47 -50 0
x -1 -2 -3 -6 8 10 -11 -12 -13 14 -15 16 17 21 24 -25 27 -29 31 34 35 -36 -37 38 40 -43 44 -50 0
x -1 -9 10 -11 12 13 -14 -15 -16 -18 -21 -22 -24 26 28 29 -30 -31 -32 -35 -39 40 44 -46 0
x 2 -3 -6 -7 8 9 -12 13 14 -18 19 23 24 -27 28 -29 31 32 -35 -36 38 39 -40 44 -50 0
x -1 -2 -3 7 -16 -19 20 21 -22 23 24 28 -30 31 -34 -35 36 -39 40 42 43 45 -47 0
x -1 2 3 -4 5 6 -10 12 18 -20 -21 -22 23 27 -29 30 -33 35 -43 -44 -48 -50 0
x 4 -5 -7 -8 9 13 -19 20 22 23 24 -25 -27 28 -29 -30 -32 -35 -37 -38 39 -41 42 45 0
x -1 -3 -5 7 10 -12 14 19 22 -23 24 26 -32 -33 34 35 37 -38 39 40 42 -43 -44 -46 -49 0
x 8 10 -11 -12 14 18 -20 21 22 24 25 26 27 -28 32 -33 -34 36 37 -40 -41 42 44 45 47 49 -50 0
x 1 -2 -3 4 7 9 -11 -14 15 -17 -18 19 -21 22 -23 -26 28 29 31 33 -36 -37 -38 -40 41 -43 45 47 49 0
